\ Model _copy
\ LP format - for model browsing. Use MPS format to capture full model detail.
Minimize
 
Subject To
 R134010: v_('1',_'2')_16 + v_('1',_'3')_16 - v_('2',_'1')_16
   - v_('3',_'1')_16 + 50 psi = 50
 R134011: v_('2',_'767495')_16 - v_('767495',_'2')_16 - v_('1',_'2')_16
   + v_('2',_'1')_16 + v_('2',_'6')_16 - v_('6',_'2')_16 + 40 psi = 40
 R134015: v_('6',_'767489')_16 - v_('767489',_'6')_16
   + v_('6',_'767497')_16 - v_('767497',_'6')_16 + v_('6',_'767498')_16
   - v_('767498',_'6')_16 + v_('6',_'767499')_16 - v_('767499',_'6')_16
   - v_('2',_'6')_16 - v_('5',_'6')_16 + v_('6',_'2')_16 + v_('6',_'5')_16
   + v_('6',_'8')_16 - v_('8',_'6')_16 + 90 psi = 90
 R134267: - v_('6',_'767489')_16 + v_('767489',_'6')_16
   + v_('767489',_('767489',_'1347'))_16
   - v_(('767489',_'1347'),_'767489')_16 = 0
 R134273: - v_('2',_'767495')_16 + v_('767495',_'2')_16
   + v_('767495',_('767495',_'1347'))_16
   - v_(('767495',_'1347'),_'767495')_16 = 0
 R134275: - v_('6',_'767497')_16 + v_('767497',_'6')_16
   + v_('767497',_('767497',_'1347'))_16
   - v_(('767497',_'1347'),_'767497')_16 = 0
 R134276: - v_('6',_'767498')_16 + v_('767498',_'6')_16
   + v_('767498',_('767498',_'1347'))_16
   - v_(('767498',_'1347'),_'767498')_16 = 0
 R134277: - v_('6',_'767499')_16 + v_('767499',_'6')_16
   + v_('767499',_('767499',_'1347'))_16
   - v_(('767499',_'1347'),_'767499')_16 = 0
 R136752: v_('767495',_('767495',_'1347'))_16
   - 0.0333333333333333 t_2_('767495',_('767495',_'1347'))_767495_16
   - 0.05 t_3_('767495',_('767495',_'1347'))_767495_16
   - 0.0666666666666667 t_4_('767495',_('767495',_'1347'))_767495_16
   - 0.1 t_6_('767495',_('767495',_'1347'))_767495_16
   - 0.2 t_12_('767495',_('767495',_'1347'))_767495_16 <= 0
 R136754: t_2_('767495',_('767495',_'1347'))_767495_16 <= 325
 R136757: t_3_('767495',_('767495',_'1347'))_767495_16 <= 0
 R136760: t_4_('767495',_('767495',_'1347'))_767495_16 <= 0
 R136763: t_6_('767495',_('767495',_'1347'))_767495_16 + 650 psi <= 325
 R136766: t_12_('767495',_('767495',_'1347'))_767495_16 <= 0
 R138400: v_('767497',_('767497',_'1347'))_16
   - 0.0333333333333333 t_2_('767497',_('767497',_'1347'))_767497_16
   - 0.05 t_3_('767497',_('767497',_'1347'))_767497_16
   - 0.0666666666666667 t_4_('767497',_('767497',_'1347'))_767497_16
   - 0.1 t_6_('767497',_('767497',_'1347'))_767497_16
   - 0.2 t_12_('767497',_('767497',_'1347'))_767497_16 <= 0
 R138402: t_2_('767497',_('767497',_'1347'))_767497_16 <= 0
 R138405: t_3_('767497',_('767497',_'1347'))_767497_16 <= 0
 R138408: t_4_('767497',_('767497',_'1347'))_767497_16 <= 0
 R138411: t_6_('767497',_('767497',_'1347'))_767497_16 <= 0
 R138414: t_12_('767497',_('767497',_'1347'))_767497_16 <= 0
 R140496: v_('767498',_('767498',_'1347'))_16
   - 0.0333333333333333 t_2_('767498',_('767498',_'1347'))_767498_16
   - 0.05 t_3_('767498',_('767498',_'1347'))_767498_16
   - 0.0666666666666667 t_4_('767498',_('767498',_'1347'))_767498_16
   - 0.1 t_6_('767498',_('767498',_'1347'))_767498_16
   - 0.2 t_12_('767498',_('767498',_'1347'))_767498_16 <= 0
 R140498: t_2_('767498',_('767498',_'1347'))_767498_16 <= 0
 R140501: t_3_('767498',_('767498',_'1347'))_767498_16 <= 0
 R140504: t_4_('767498',_('767498',_'1347'))_767498_16 <= 0
 R140507: t_6_('767498',_('767498',_'1347'))_767498_16 <= 0
 R140510: t_12_('767498',_('767498',_'1347'))_767498_16 <= 0
 R140912: v_('767489',_('767489',_'1347'))_16
   - 0.0333333333333333 t_2_('767489',_('767489',_'1347'))_767489_16
   - 0.05 t_3_('767489',_('767489',_'1347'))_767489_16
   - 0.0666666666666667 t_4_('767489',_('767489',_'1347'))_767489_16
   - 0.1 t_6_('767489',_('767489',_'1347'))_767489_16
   - 0.2 t_12_('767489',_('767489',_'1347'))_767489_16 <= 0
 R140914: t_2_('767489',_('767489',_'1347'))_767489_16 <= 0
 R140917: t_3_('767489',_('767489',_'1347'))_767489_16 <= 0
 R140920: t_4_('767489',_('767489',_'1347'))_767489_16 <= 0
 R140923: t_6_('767489',_('767489',_'1347'))_767489_16 <= 0
 R140926: t_12_('767489',_('767489',_'1347'))_767489_16 <= 0
 R141392: v_('767499',_('767499',_'1347'))_16
   - 0.0333333333333333 t_2_('767499',_('767499',_'1347'))_767499_16
   - 0.05 t_3_('767499',_('767499',_'1347'))_767499_16
   - 0.0666666666666667 t_4_('767499',_('767499',_'1347'))_767499_16
   - 0.1 t_6_('767499',_('767499',_'1347'))_767499_16
   - 0.2 t_12_('767499',_('767499',_'1347'))_767499_16 <= 0
 R141394: t_2_('767499',_('767499',_'1347'))_767499_16 <= 450
 R141397: t_3_('767499',_('767499',_'1347'))_767499_16 <= 0
 R141400: t_4_('767499',_('767499',_'1347'))_767499_16 <= 0
 R141403: t_6_('767499',_('767499',_'1347'))_767499_16 + 900 psi <= 450
 R141406: t_12_('767499',_('767499',_'1347'))_767499_16 <= 0
 R141744: v_('1',_'3')_16 - 0.00168333333333333 omega_1_('1',_'3')_1_16
   - 0.0841666666666667 omega_50_('1',_'3')_1_16
   - 0.1683333333333333 omega_100_('1',_'3')_1_16
   - 0.3366666666666666 omega_200_('1',_'3')_1_16
   - 0.8416666666666666 omega_500_('1',_'3')_1_16 <= 0
 R141746: omega_1_('1',_'3')_1_16 <= 0
 R141749: omega_50_('1',_'3')_1_16 + 297.0297029702971 psi
   <= 148.5148514851485
 R141752: omega_100_('1',_'3')_1_16 <= 148.5148514851485
 R141755: omega_200_('1',_'3')_1_16 <= 0
 R141758: omega_500_('1',_'3')_1_16 <= 0
 R141952: v_('6',_'5')_16 - 0.00168333333333333 omega_1_('6',_'5')_6_16
   - 0.0841666666666667 omega_50_('6',_'5')_6_16
   - 0.1683333333333333 omega_100_('6',_'5')_6_16
   - 0.3366666666666666 omega_200_('6',_'5')_6_16
   - 0.8416666666666666 omega_500_('6',_'5')_6_16 <= 0
 R141954: omega_1_('6',_'5')_6_16 <= 0
 R141957: omega_50_('6',_'5')_6_16 <= 0
 R141960: omega_100_('6',_'5')_6_16 <= 0
 R141963: omega_200_('6',_'5')_6_16 <= 0
 R141966: omega_500_('6',_'5')_6_16 <= 0
 R141968: v_('6',_'8')_16 - 0.00168333333333333 omega_1_('6',_'8')_6_16
   - 0.0841666666666667 omega_50_('6',_'8')_6_16
   - 0.1683333333333333 omega_100_('6',_'8')_6_16
   - 0.3366666666666666 omega_200_('6',_'8')_6_16
   - 0.8416666666666666 omega_500_('6',_'8')_6_16 <= 0
 R141970: omega_1_('6',_'8')_6_16 <= 0
 R141973: omega_50_('6',_'8')_6_16 <= 0
 R141976: omega_100_('6',_'8')_6_16 <= 0
 R141979: omega_200_('6',_'8')_6_16 <= 0
 R141982: omega_500_('6',_'8')_6_16 <= 0
Bounds
 v_('2',_'767495')_16 free
 v_('767495',_'2')_16 free
 v_('6',_'767489')_16 free
 v_('767489',_'6')_16 free
 v_('6',_'767497')_16 free
 v_('767497',_'6')_16 free
 v_('6',_'767498')_16 free
 v_('767498',_'6')_16 free
 v_('6',_'767499')_16 free
 v_('767499',_'6')_16 free
 v_('1',_'2')_16 free
 v_('1',_'3')_16 free
 v_('2',_'1')_16 free
 v_('2',_'6')_16 free
 v_('6',_'2')_16 free
 v_('6',_'5')_16 free
 v_('6',_'8')_16 free
 v_('767498',_('767498',_'1347'))_16 free
 v_('767495',_('767495',_'1347'))_16 free
 v_('767497',_('767497',_'1347'))_16 free
 v_('767499',_('767499',_'1347'))_16 free
 v_('767489',_('767489',_'1347'))_16 free
 t_2_('767495',_('767495',_'1347'))_767495_16 free
 t_3_('767495',_('767495',_'1347'))_767495_16 free
 t_4_('767495',_('767495',_'1347'))_767495_16 free
 t_6_('767495',_('767495',_'1347'))_767495_16 free
 t_12_('767495',_('767495',_'1347'))_767495_16 free
 t_2_('767497',_('767497',_'1347'))_767497_16 free
 t_3_('767497',_('767497',_'1347'))_767497_16 free
 t_4_('767497',_('767497',_'1347'))_767497_16 free
 t_6_('767497',_('767497',_'1347'))_767497_16 free
 t_12_('767497',_('767497',_'1347'))_767497_16 free
 t_2_('767498',_('767498',_'1347'))_767498_16 free
 t_3_('767498',_('767498',_'1347'))_767498_16 free
 t_4_('767498',_('767498',_'1347'))_767498_16 free
 t_6_('767498',_('767498',_'1347'))_767498_16 free
 t_12_('767498',_('767498',_'1347'))_767498_16 free
 t_2_('767489',_('767489',_'1347'))_767489_16 free
 t_3_('767489',_('767489',_'1347'))_767489_16 free
 t_4_('767489',_('767489',_'1347'))_767489_16 free
 t_6_('767489',_('767489',_'1347'))_767489_16 free
 t_12_('767489',_('767489',_'1347'))_767489_16 free
 t_2_('767499',_('767499',_'1347'))_767499_16 free
 t_3_('767499',_('767499',_'1347'))_767499_16 free
 t_4_('767499',_('767499',_'1347'))_767499_16 free
 t_6_('767499',_('767499',_'1347'))_767499_16 free
 t_12_('767499',_('767499',_'1347'))_767499_16 free
 omega_1_('1',_'3')_1_16 free
 omega_50_('1',_'3')_1_16 free
 omega_100_('1',_'3')_1_16 free
 omega_200_('1',_'3')_1_16 free
 omega_500_('1',_'3')_1_16 free
 omega_1_('6',_'5')_6_16 free
 omega_50_('6',_'5')_6_16 free
 omega_100_('6',_'5')_6_16 free
 omega_200_('6',_'5')_6_16 free
 omega_500_('6',_'5')_6_16 free
 omega_1_('6',_'8')_6_16 free
 omega_50_('6',_'8')_6_16 free
 omega_100_('6',_'8')_6_16 free
 omega_200_('6',_'8')_6_16 free
 omega_500_('6',_'8')_6_16 free
 psi free
End
